c status 14 1469387836939
c status 9 1469387836939
s td 13 9 23
b 1 5 9 17 7 4 8
b 2 23 6 3 12 14 22
b 3 10 11 20 8 12 16
b 4 13 7 18 1 4 2
b 5 15 4 3 8 14 16
b 6 19 9 17 18 1 20
b 7 6 2 3 12 14 21 22
b 8 11 20 8 12 16 21 22
b 9 9 17 7 18 1 4 20 8
b 10 7 18 1 4 20 2 8
b 11 1 4 20 2 8 21
b 12 4 20 2 3 8 14 16 21
b 13 20 2 3 8 12 14 16 21 22
1 9
9 10
10 11
9 6
11 12
12 13
13 7
13 8
12 5
7 2
8 3
10 4
